(declare-const a Real)
(declare-const b Real)
(declare-const c Real)
(assert (= (+ a b c) 1))
(assert (> a 0))
(assert (> b 0))
(assert (> c 0))
(assert (not (<= (+ (pow (+ 2 (* (/ 2 9) (pow (+ 2 (* 27 (pow (+ (* (/ 1 3) a b) (* (/ 1 3) a c) (* (/ 1 3) b c)) (/ 3 2)))) 2))) (/ 1 2)) (* -1 (pow (+ a (* b c)) (/ 1 2))) (* -1 (pow (+ b (* a c)) (/ 1 2))) (* -1 (pow (+ c (* a b)) (/ 1 2)))) 0)))
(check-sat)
(get-model)
(exit)